(set-info :origin "driver benchmark extracted from Microsoft SDV")
(set-logic HORN)
(declare-fun Proc43 (Int Int Bool Int) Bool)
(declare-fun Proc54 (Int Int Bool Int) Bool)
(declare-fun Proc61 (Int Int Bool) Bool)
(declare-fun Proc7 (Int Int Bool Int Int Int) Bool)
(declare-fun Proc62 (Int Int Bool) Bool)
(declare-fun Proc16 (Int Int Bool Int Int) Bool)
(declare-fun Proc23 (Int Int Bool Int Int Int) Bool)
(declare-fun Proc2 (Int Int Bool Int Int) Bool)
(declare-fun Proc48 (Int Int Bool Int) Bool)
(declare-fun Proc26 (Int Int Bool Int Int Int) Bool)
(declare-fun Proc60 (Int Int Bool Int Int Int Int) Bool)
(declare-fun Proc36 (Int Int Bool) Bool)
(declare-fun Proc37 (Int Int Bool) Bool)
(declare-fun Proc17 (Int Int Bool Int Int Int Int) Bool)
(declare-fun Proc40 (Int Int Bool Int) Bool)
(declare-fun Proc34 (Int Int Bool) Bool)
(declare-fun Proc28 (Int Int Bool Int Int Int Int) Bool)
(declare-fun Proc18 (Int Int Bool Int Int) Bool)
(declare-fun Proc38 (Int Int Bool) Bool)
(declare-fun Proc53 (Int Int Bool Int) Bool)
(declare-fun Proc57 (Int Int Bool) Bool)
(declare-fun Proc4 (Int Int Bool Int) Bool)
(declare-fun Proc27 (Int Int Bool Int) Bool)
(declare-fun Proc12 (Int Int Bool Int) Bool)
(declare-fun Proc33 (Int Int Bool Int Int Int Int) Bool)
(declare-fun Proc56 (Int Int Bool Int) Bool)
(declare-fun Proc15 (Int Int Bool Int Int Int Int) Bool)
(declare-fun Proc29 (Int Int Bool Int) Bool)
(declare-fun Proc10 (Int Int Bool Int Int) Bool)
(declare-fun Proc46 (Int Int Bool Int Int Int) Bool)
(declare-fun Proc24 (Int Int Bool Int Int) Bool)
(declare-fun Proc39 (Int Int Bool Int) Bool)
(declare-fun Proc8 (Int Int Bool Int Int Int Int) Bool)
(declare-fun Proc1 (Int Int Bool Int Int) Bool)
(declare-fun Proc5 (Int Int Bool Int Int Int Int) Bool)
(declare-fun Proc42 (Int Int Bool Int Int Bool Int) Bool)
(declare-fun Proc35 (Int Int Bool) Bool)
(declare-fun Proc47 (Int Int Bool Int) Bool)
(declare-fun Proc6 (Int Int Bool Int) Bool)
(declare-fun Proc55 (Int Int Bool Int) Bool)
(declare-fun Proc19 (Int Int Bool Int Int Int) Bool)
(declare-fun Proc0 (Int Int Bool Int Int) Bool)
(declare-fun Proc31 (Int Int Bool Int Int) Bool)
(declare-fun Proc65 (Int Int Bool Int Bool Int Int) Bool)
(declare-fun Proc25 (Int Int Bool Int Int Int) Bool)
(declare-fun Proc21 (Int Int Bool Int Int Int Int Int) Bool)
(declare-fun Proc20 (Int Int Bool Int Int Int) Bool)
(declare-fun Proc44 (Int Int Bool Int) Bool)
(declare-fun Proc58 (Int Int Bool Int Int) Bool)
(declare-fun Proc45 (Int Int Bool Int) Bool)
(declare-fun Proc13 (Int Int Bool Int Int Int) Bool)
(declare-fun Proc51 (Int Int Bool Int) Bool)
(declare-fun Proc22 (Int Int Bool Int Int Int Int) Bool)
(declare-fun Proc9 (Int Int Bool Int Int) Bool)
(declare-fun Proc11 (Int Int Bool Int Int Int) Bool)
(declare-fun Proc50 (Int Int Bool Int) Bool)
(declare-fun Proc63 (Int Int Bool Int Int) Bool)
(declare-fun Proc3 (Int Int Bool Int) Bool)
(declare-fun Proc41 (Int Int Bool Int Int) Bool)
(declare-fun Proc49 (Int Int Bool Int) Bool)
(declare-fun Proc14 (Int Int Bool Int) Bool)
(declare-fun Proc59 (Int Int Bool Int) Bool)
(declare-fun Proc30 (Int Int Bool Int Int Int) Bool)
(declare-fun Proc52 (Int Int Bool Int) Bool)
(declare-fun Proc32 (Int Int Bool Int Int Int Int) Bool)
(declare-fun Proc64 (Int Int Bool) Bool)
(assert (forall ((A Int) (B Int) (C Int) (D Int) (E Bool))
  (let ((a!1 (not (or (not E) (= D 0) (not (Proc0 C B E D 0))))))
    (=> a!1 (Proc1 C B E A D)))))
(assert (forall ((A Int)
         (B Int)
         (C Int)
         (D Int)
         (E Bool)
         (F Int)
         (G Int)
         (H Int)
         (I Int)
         (J Int)
         (K Int))
  (let ((a!1 (and (= K J) (not (<= I (+ 4 K)))))
        (a!2 (and (not (<= I J)) (= H I) (not (<= G (+ 4 H))) (not (<= G I)))))
  (let ((a!3 (or (not E)
                 (not a!1)
                 (not a!2)
                 (not (Proc2 G F E 2 K))
                 (not (Proc3 G F E H))
                 (not (Proc4 G F E H))
                 (not (and (= D 0) (= C G))))))
    (=> (not a!3) (Proc5 J F E B A D C))))))
(assert (forall ((A Int)
         (B Int)
         (C Int)
         (D Int)
         (E Bool)
         (F Int)
         (G Int)
         (H Int)
         (I Int)
         (J Int)
         (K Int)
         (L Int))
  (let ((a!1 (and (not (<= J (+ 4 L))) (not (<= J K)))))
  (let ((a!2 (or (not E)
                 (not (= L K))
                 (not a!1)
                 (not (Proc2 J I E 2 L))
                 (= H 0)
                 (not (Proc6 J I E H))
                 (= G 0)
                 (= F 0)
                 (not (Proc7 J I E D H C))
                 (not (and (= B C) (= A J))))))
    (=> (not a!2) (Proc8 K I E G H B A))))))
(assert (forall ((A Int) (B Int) (C Int) (D Int) (E Bool) (F Int) (G Int) (H Int))
  (let ((a!1 (not (or (not E)
                      (not (Proc9 H G E F D))
                      (not (Proc10 H G E D C))
                      (not (= B 0))))))
    (=> a!1 (Proc11 H G E F A B)))))
(assert (forall ((A Int)
         (B Int)
         (C Int)
         (D Int)
         (E Bool)
         (F Int)
         (G Int)
         (H Int)
         (I Int)
         (J Int))
  (let ((a!1 (and (not (<= H (+ 128 J))) (not (<= H I)))))
  (let ((a!2 (or (not E)
                 (not (= J I))
                 (not a!1)
                 (not (Proc12 H G E J))
                 (not (Proc13 H G E F 122 D))
                 (not (Proc14 H G E J))
                 (not (and (= C 0) (= B H))))))
    (=> (not a!2) (Proc15 I G E A F C B))))))
(assert (forall ((A Int)
         (B Int)
         (C Int)
         (D Int)
         (E Bool)
         (F Int)
         (G Int)
         (H Int)
         (I Int))
  (let ((a!1 (or (not E) (not (Proc16 I H E G F)) (not (and (= D 0) (= C F))))))
    (=> (not a!1) (Proc17 I H E B A D C)))))
(assert (forall ((A Int)
         (B Int)
         (C Int)
         (D Int)
         (E Bool)
         (F Int)
         (G Int)
         (H Int)
         (I Int)
         (J Int)
         (K Int))
  (let ((a!1 (and (or (= I 0)
                      (not (Proc0 K J E I 0))
                      (not (= G 0))
                      (not (= F G)))
                  (or (= I 0)
                      (not (Proc6 K J E I))
                      (= D 0)
                      (= C 0)
                      (not (Proc7 K J E B I A))
                      (not (= G A))
                      (not (= F G))))))
  (let ((a!2 (not (or (not E) (not (Proc18 K J E I H)) (= H 0) a!1))))
    (=> a!2 (Proc19 K J E D I F))))))
(assert (forall ((A Int)
         (B Int)
         (C Int)
         (D Int)
         (E Bool)
         (F Int)
         (G Int)
         (H Int)
         (I Int))
  (let ((a!1 (not (or (not E)
                      (not (Proc6 I H E G))
                      (= F 0)
                      (= D 0)
                      (not (Proc7 I H E C G B))
                      (not (= A 0))))))
    (=> a!1 (Proc20 I H E F G A)))))
(assert (forall ((A Int)
         (B Int)
         (C Int)
         (D Int)
         (E Bool)
         (F Int)
         (G Int)
         (H Int)
         (I Int)
         (J Int)
         (K Int)
         (L Int)
         (M Int)
         (N Int))
  (let ((a!1 (and (not (<= L (+ 4 N))) (not (<= L M))))
        (a!2 (not (and (= J (- 513645724)) (Proc21 L K E 1 12 J I H))))
        (a!3 (or (= I 0) (not (= G 0)) (not (and (= F G) (= D H)))))
        (a!4 (not (and (= C (- 1073741670)) (= G C)))))
  (let ((a!5 (or (not (= I 0)) a!4 (not (and (= F G) (= D H))))))
  (let ((a!6 (not (or (not E)
                      (not (= N M))
                      (not a!1)
                      (not (Proc2 L K E 2 N))
                      a!2
                      (and a!3 a!5)))))
    (=> a!6 (Proc22 M K E B A F D)))))))
(assert (forall ((A Int) (B Int) (C Int) (D Int) (E Bool) (F Int) (G Int))
  (let ((a!1 (or (not E)
                 (= G 0)
                 (not (Proc0 F D E G 0))
                 (not (= C (- 1073741536)))
                 (not (= B C)))))
    (=> (not a!1) (Proc23 F D E A G B)))))
(assert (forall ((A Int) (B Int) (C Int) (D Int) (E Bool) (F Int) (G Int))
  (let ((a!1 (not (or (not E) (not (Proc24 G F E 1000 D)) (not (= C 0))))))
    (=> a!1 (Proc25 G F E B A C)))))
(assert (forall ((A Int)
         (B Int)
         (C Int)
         (D Int)
         (E Bool)
         (F Int)
         (G Int)
         (H Int)
         (I Int)
         (J Int)
         (K Int)
         (L Int)
         (M Int)
         (N Int))
  (let ((a!1 (and (= N M) (not (<= L (+ 4 N)))))
        (a!2 (and (not (<= L M)) (= K L) (not (<= J (+ 84 K))) (not (<= J L))))
        (a!3 (or (= H 0)
                 (not (Proc27 J I E K))
                 (not (= G 0))
                 (not (and (= F G) (= D J)))))
        (a!4 (not (and (= C (- 1073741823)) (= G C)))))
  (let ((a!5 (or (not (= H 0)) a!4 (not (and (= F G) (= D J))))))
  (let ((a!6 (not (or (not E)
                      (not a!1)
                      (not a!2)
                      (not (Proc2 J I E 31 N))
                      (not (Proc26 J I E K 0 H))
                      (and a!3 a!5)))))
    (=> a!6 (Proc28 M I E B A F D)))))))
(assert (forall ((A Int) (B Int) (C Int) (E Bool)) (=> E (Proc12 C B E A))))
(assert (forall ((A Int) (B Int) (C Int) (D Int) (E Bool) (F Int) (G Int))
  (let ((a!1 (and (or (not (= F 1)) (not (= D F)))
                  (or (not (= F 0)) (not (= D F))))))
  (let ((a!2 (and (or (= G 0) (not (= F 1)) (not (= D F)))
                  (or (not (= G 0)) a!1))))
    (=> (not (or (not E) a!2)) (Proc26 C B E A G D))))))
(assert (forall ((A Int)
         (B Int)
         (C Int)
         (D Int)
         (E Bool)
         (F Int)
         (G Int)
         (H Int)
         (I Int)
         (J Int)
         (K Int)
         (L Int))
  (let ((a!1 (or (not (and (= L K) (= J 0))) (not (and (= I J) (= H L)))))
        (a!2 (and (not (<= F (+ 1 G))) (not (<= F K)))))
  (let ((a!3 (or (not (= G K))
                 (not a!2)
                 (not (and (= L F) (= J G)))
                 (not (and (= I J) (= H L))))))
    (=> (not (or (not E) (and a!1 a!3))) (Proc21 K D E C B A I H))))))
(assert (forall ((A Int) (B Int) (C Int) (E Bool)) (=> E (Proc14 C B E A))))
(assert (forall ((A Int) (B Int) (C Int) (E Bool)) (=> E (Proc27 C B E A))))
(assert (forall ((A Int) (B Int) (C Int) (E Bool))
  (=> (not (or (not E) (= C 0))) (Proc29 B A E C))))
(assert (forall ((A Int) (B Int) (C Int) (D Int) (E Bool) (F Int) (G Int))
  (let ((a!1 (and (or (not (= G 0)) (not (= F G)))
                  (or (not (= G D)) (not (= F G))))))
    (=> (not (or (not E) a!1)) (Proc24 C B E A F)))))
(assert (forall ((A Int) (B Int) (C Int) (D Int) (E Bool) (F Int))
  (let ((a!1 (not (or (not E) (not (= F D))))))
    (=> a!1 (Proc9 C B E A F)))))
(assert (forall ((A Int) (B Int) (C Int) (D Int) (E Bool) (F Int) (G Int))
  (let ((a!1 (and (not (<= D (+ 1 G))) (not (<= D F)))))
  (let ((a!2 (or (not E) (not (= G F)) (not a!1) (not (and (= C G) (= B D))))))
    (=> (not a!2) (Proc16 F A E C B))))))
(assert (forall ((A Int) (B Int) (C Int) (D Int) (E Bool) (F Int))
  (let ((a!1 (not (or (not E) (= F 0) (not (= D 259))))))
    (=> a!1 (Proc30 C B E A F D)))))
(assert (forall ((A Int)
         (B Int)
         (C Int)
         (D Int)
         (E Bool)
         (F Int)
         (G Int)
         (H Int)
         (I Int)
         (J Int))
  (let ((a!1 (and (not (<= H (+ 1 J))) (not (<= H I)))))
  (let ((a!2 (or (not E)
                 (not (= J I))
                 (not a!1)
                 (not (Proc31 H G E J F))
                 (not (and (= D H) (= C F))))))
    (=> (not a!2) (Proc32 I G E B A D C))))))
(assert (forall ((A Int) (B Int) (C Int) (D Int) (E Bool))
  (let ((a!1 (not (or (not E) (not (= D 1))))))
    (=> a!1 (Proc31 C B E A D)))))
(assert (forall ((A Int)
         (B Int)
         (C Int)
         (D Int)
         (E Bool)
         (F Int)
         (G Int)
         (H Int)
         (I Int)
         (J Int)
         (K Int))
  (let ((a!1 (or (not (= F 1))
                 (not (and (= D G) (= C F)))
                 (not (and (= B D) (= A C)))))
        (a!2 (or (= F 1)
                 (not (and (= D G) (= C F)))
                 (not (and (= B D) (= A C)))))
        (a!3 (or (not (= K 0))
                 (not (and (= D J) (= C I)))
                 (not (and (= B D) (= A C))))))
  (let ((a!4 (and (or (= K 0) (not (Proc32 J I E H K G F)) (and a!1 a!2)) a!3)))
    (=> (not (or (not E) a!4)) (Proc33 J I E H K B A))))))
(assert (forall ((A Int) (B Int) (E Bool)) (=> E (Proc34 B A E))))
(assert (forall ((A Int) (B Int) (E Bool)) (=> E (Proc35 B A E))))
(assert (forall ((A Int) (B Int) (E Bool)) (=> E (Proc36 B A E))))
(assert (forall ((A Int) (B Int) (E Bool)) (=> E (Proc37 B A E))))
(assert (forall ((A Int) (B Int) (E Bool)) (=> E (Proc38 B A E))))
(assert (forall ((A Int) (B Int) (C Int) (E Bool))
  (let ((a!1 (not (or (not E) (not (= C 0))))))
    (=> a!1 (Proc39 B A E C)))))
(assert (forall ((A Int)
         (B Int)
         (C Int)
         (D Int)
         (E Bool)
         (F Int)
         (G Int)
         (H Int)
         (I Int)
         (J Int)
         (K Int)
         (L Int)
         (M Int)
         (O Bool)
         (P Bool)
         (Q Bool))
  (let ((a!1 (not (and (not (<= M 0)) (Proc40 M L Q K))))
        (a!2 (not (and (= D G) (= C H) (= O P) (= B I)))))
  (let ((a!3 (or (= H 0) (not (and (= G F) (not P))) a!2))
        (a!4 (or (not (and (= H 0) (= E Q))) (not (and (= G A) (= P E))) a!2)))
  (let ((a!5 (and (or (= H 1) (and a!3 a!4)) (or (not (= H 1)) (and a!3 a!4)))))
  (let ((a!6 (not (or (not Q)
                      a!1
                      (not (Proc39 K L Q J))
                      (not (Proc38 K J Q))
                      (not (Proc37 K J Q))
                      (not (Proc36 K J Q))
                      (not (Proc35 K J Q))
                      (not (Proc34 K J Q))
                      (not (Proc41 K J Q I H))
                      a!5))))
    (=> a!6 (Proc42 M L Q D C O B))))))))
(assert (forall ((A Int) (B Int) (C Int) (E Bool))
  (let ((a!1 (not (or (not E) (not (= C 1))))))
    (=> a!1 (Proc43 B A E C)))))
(assert (forall ((A Int) (B Int) (C Int) (E Bool))
  (let ((a!1 (not (or (not E) (not (= C 1))))))
    (=> a!1 (Proc44 B A E C)))))
(assert (forall ((A Int) (B Int) (C Int) (E Bool))
  (let ((a!1 (not (or (not E) (not (= C 1))))))
    (=> a!1 (Proc45 B A E C)))))
(assert (forall ((A Int)
         (B Int)
         (C Int)
         (D Int)
         (E Bool)
         (F Int)
         (G Int)
         (H Int)
         (I Int)
         (J Int))
  (let ((a!1 (and (not (<= H (+ 1 J))) (not (<= H I))))
        (a!2 (not (and (= C 0) (= B F) (= A D)))))
  (let ((a!3 (and (or (not (= D 1)) a!2) (or (= D 1) a!2))))
  (let ((a!4 (not (or (not E)
                      (not (= J I))
                      (not a!1)
                      (not (Proc33 H G E J 0 F D))
                      a!3))))
    (=> a!4 (Proc46 I G E C B A)))))))
(assert (forall ((A Int) (B Int) (C Int) (E Bool))
  (let ((a!1 (not (or (not E) (not (= C 1))))))
    (=> a!1 (Proc47 B A E C)))))
(assert (forall ((A Int) (B Int) (C Int) (E Bool))
  (let ((a!1 (not (or (not E) (not (= C 0))))))
    (=> a!1 (Proc48 B A E C)))))
(assert (forall ((A Int) (B Int) (C Int) (E Bool))
  (let ((a!1 (not (or (not E) (not (= C 1))))))
    (=> a!1 (Proc49 B A E C)))))
(assert (forall ((A Int) (B Int) (C Int) (E Bool))
  (let ((a!1 (not (or (not E) (not (= C 1))))))
    (=> a!1 (Proc50 B A E C)))))
(assert (forall ((A Int) (B Int) (C Int) (E Bool))
  (let ((a!1 (not (or (not E) (not (= C 0))))))
    (=> a!1 (Proc51 B A E C)))))
(assert (forall ((A Int) (B Int) (C Int) (E Bool))
  (let ((a!1 (not (or (not E) (not (= C 0))))))
    (=> a!1 (Proc52 B A E C)))))
(assert (forall ((A Int) (B Int) (C Int) (E Bool))
  (let ((a!1 (not (or (not E) (not (= C 0))))))
    (=> a!1 (Proc53 B A E C)))))
(assert (forall ((A Int) (B Int) (C Int) (D Int) (E Bool))
  (let ((a!1 (or (not E) (not (= D (- 1073741823))) (not (= C D)))))
    (=> (not a!1) (Proc54 B A E C)))))
(assert (forall ((A Int) (B Int) (C Int) (D Int) (E Bool) (F Int) (G Int))
  (let ((a!1 (not (or (not E) (not (Proc30 G F E D C B)) (not (= A B))))))
    (=> a!1 (Proc7 G F E D C A)))))
(assert (forall ((A Int) (B Int) (C Int) (D Int) (E Bool)) (=> E (Proc0 D C E B A))))
(assert (forall ((A Int) (B Int) (C Int) (E Bool))
  (let ((a!1 (not (or (not E) (not (= C 0))))))
    (=> a!1 (Proc55 B A E C)))))
(assert (forall ((A Int) (B Int) (C Int) (D Int) (E Bool) (F Int))
  (let ((a!1 (not (or (not E) (= F 0) (not (= D C))))))
    (=> a!1 (Proc18 B A E F D)))))
(assert (forall ((A Int) (B Int) (C Int) (D Int) (E Bool) (F Int) (G Int))
  (let ((a!1 (not (or (not E) (= G 0) (not (= F D))))))
    (=> a!1 (Proc13 C B E G A F)))))
(assert (forall ((A Int) (B Int) (C Int) (E Bool)) (=> E (Proc6 C B E A))))
(assert (forall ((A Int) (B Int) (C Int) (E Bool)) (=> E (Proc3 C B E A))))
(assert (forall ((A Int) (B Int) (C Int) (D Int) (E Bool))
  (=> (not (or (not E) (= D 0))) (Proc2 C B E A D))))
(assert (forall ((A Int) (B Int) (C Int) (E Bool)) (=> E (Proc4 C B E A))))
(assert (forall ((A Int) (B Int) (C Int) (D Int) (E Bool) (F Int))
  (let ((a!1 (not (or (not E) (not (= F D))))))
    (=> a!1 (Proc10 C B E A F)))))
(assert (forall ((A Int)
         (B Int)
         (C Int)
         (D Int)
         (E Bool)
         (F Int)
         (G Int)
         (H Int)
         (I Int)
         (J Int)
         (K Int)
         (L Int)
         (M Int)
         (N Int)
         (R Int)
         (S Int)
         (T Int)
         (U Int)
         (V Int)
         (W Int)
         (X Int)
         (Y Int)
         (Z Int)
         (A1 Int)
         (B1 Int)
         (C1 Int)
         (D1 Int)
         (E1 Int)
         (F1 Int)
         (G1 Int)
         (H1 Int)
         (I1 Int)
         (J1 Int)
         (K1 Int)
         (L1 Int))
  (let ((a!1 (or (= I1 0)
                 (not (Proc11 K1 J1 E H1 L1 G1))
                 (not (and (= F1 G1) (= E1 K1)))
                 (not (Proc58 E1 J1 E F1 L1))
                 (= L1 0)
                 (not (and (= D1 F1) (= C1 E1)))))
        (a!2 (or (= I1 0)
                 (not (Proc8 K1 J1 E H1 L1 B1 A1))
                 (not (and (= F1 B1) (= E1 A1)))
                 (not (Proc58 E1 J1 E F1 L1))
                 (= L1 0)
                 (not (and (= D1 F1) (= C1 E1)))))
        (a!3 (or (= I1 0)
                 (not (Proc22 K1 J1 E H1 L1 Z Y))
                 (not (and (= F1 Z) (= E1 Y)))
                 (not (Proc58 E1 J1 E F1 L1))
                 (= L1 0)
                 (not (and (= D1 F1) (= C1 E1)))))
        (a!4 (or (= I1 0)
                 (not (Proc28 K1 J1 E H1 L1 X W))
                 (not (and (= F1 X) (= E1 W)))
                 (not (Proc58 E1 J1 E F1 L1))
                 (= L1 0)
                 (not (and (= D1 F1) (= C1 E1)))))
        (a!5 (or (= I1 0)
                 (not (Proc54 K1 J1 E V))
                 (not (and (= F1 V) (= E1 K1)))
                 (not (Proc58 E1 J1 E F1 L1))
                 (= L1 0)
                 (not (and (= D1 F1) (= C1 E1)))))
        (a!6 (or (= I1 0)
                 (not (Proc54 K1 J1 E U))
                 (not (and (= F1 U) (= E1 K1)))
                 (not (Proc58 E1 J1 E F1 L1))
                 (= L1 0)
                 (not (and (= D1 F1) (= C1 E1)))))
        (a!7 (or (= I1 0)
                 (not (Proc54 K1 J1 E T))
                 (not (and (= F1 T) (= E1 K1)))
                 (not (Proc58 E1 J1 E F1 L1))
                 (= L1 0)
                 (not (and (= D1 F1) (= C1 E1)))))
        (a!8 (or (not (Proc54 K1 J1 E S))
                 (not (and (= F1 S) (= E1 K1)))
                 (not (Proc58 E1 J1 E F1 L1))
                 (= L1 0)
                 (not (and (= D1 F1) (= C1 E1)))))
        (a!9 (or (= I1 0)
                 (not (Proc15 K1 J1 E H1 L1 R N))
                 (not (and (= F1 R) (= E1 N)))
                 (not (Proc58 E1 J1 E F1 L1))
                 (= L1 0)
                 (not (and (= D1 F1) (= C1 E1)))))
        (a!10 (or (= I1 0)
                  (not (Proc17 K1 J1 E H1 L1 M L))
                  (not (and (= F1 M) (= E1 L)))
                  (not (Proc58 E1 J1 E F1 L1))
                  (= L1 0)
                  (not (and (= D1 F1) (= C1 E1)))))
        (a!11 (or (= I1 0)
                  (not (Proc23 K1 J1 E H1 L1 K))
                  (not (and (= F1 K) (= E1 K1)))
                  (not (Proc58 E1 J1 E F1 L1))
                  (= L1 0)
                  (not (and (= D1 F1) (= C1 E1)))))
        (a!12 (or (not (Proc54 K1 J1 E J))
                  (not (and (= F1 J) (= E1 K1)))
                  (not (Proc58 E1 J1 E F1 L1))
                  (= L1 0)
                  (not (and (= D1 F1) (= C1 E1)))))
        (a!13 (or (= I1 0)
                  (not (Proc5 K1 J1 E H1 L1 I H))
                  (not (and (= F1 I) (= E1 H)))
                  (not (Proc58 E1 J1 E F1 L1))
                  (= L1 0)
                  (not (and (= D1 F1) (= C1 E1)))))
        (a!14 (or (= I1 0)
                  (not (Proc59 K1 J1 E L1))
                  (not (Proc20 K1 J1 E H1 L1 G))
                  (not (and (= F1 G) (= E1 K1)))
                  (not (Proc58 E1 J1 E F1 L1))
                  (= L1 0)
                  (not (and (= D1 F1) (= C1 E1)))))
        (a!15 (or (= I1 0)
                  (not (Proc25 K1 J1 E H1 L1 F))
                  (not (and (= F1 F) (= E1 K1)))
                  (not (Proc58 E1 J1 E F1 L1))
                  (= L1 0)
                  (not (and (= D1 F1) (= C1 E1)))))
        (a!16 (or (not (Proc54 K1 J1 E D))
                  (not (and (= F1 D) (= E1 K1)))
                  (not (Proc58 E1 J1 E F1 L1))
                  (= L1 0)
                  (not (and (= D1 F1) (= C1 E1)))))
        (a!17 (or (= I1 0)
                  (not (Proc19 K1 J1 E H1 L1 C))
                  (not (and (= F1 C) (= E1 K1)))
                  (not (Proc58 E1 J1 E F1 L1))
                  (= L1 0)
                  (not (and (= D1 F1) (= C1 E1)))))
        (a!18 (or (not (= B 1))
                  (= B 0)
                  (= I1 0)
                  (not (Proc19 K1 J1 E H1 L1 C))
                  (not (and (= F1 C) (= E1 K1)))
                  (not (Proc58 E1 J1 E F1 L1))
                  (= L1 0)
                  (not (and (= D1 F1) (= C1 E1))))))
  (let ((a!19 (and (or (= I1 0) (and a!17 a!18))
                   (or (not (= A 1)) (= A 0) (= I1 0) (and a!17 a!18)))))
  (let ((a!20 (or (not E)
                  (= L1 0)
                  (not (Proc56 K1 J1 E L1))
                  (= I1 0)
                  (not (Proc57 K1 J1 E))
                  (and a!1
                       a!2
                       a!3
                       a!4
                       a!5
                       a!6
                       a!7
                       a!8
                       a!9
                       a!10
                       a!11
                       a!12
                       a!13
                       a!14
                       a!15
                       a!16
                       (or (= I1 0) a!19)))))
    (=> (not a!20) (Proc60 K1 J1 E H1 L1 D1 C1)))))))
(assert (forall ((A Int) (B Int) (C Int) (D Int) (E Bool) (F Int))
  (let ((a!1 (not (or (not E)
                      (not (Proc61 F D E))
                      (not (Proc54 F D E C))
                      (not (Proc62 F D E))))))
    (=> a!1 (Proc63 F D E B A)))))
(assert (forall ((A Int) (B Int) (C Int) (D Int) (E Bool))
  (=> (not (or (not E) (= D 0) (= C 0))) (Proc59 B A E D))))
(assert (forall ((A Int) (B Int) (C Int) (E Bool))
  (=> (not (or (not E) (= C 0))) (Proc56 B A E C))))
(assert (forall ((A Int)
         (B Int)
         (C Int)
         (D Int)
         (E Bool)
         (F Int)
         (G Int)
         (H Int)
         (I Int)
         (J Int)
         (K Int)
         (L Int)
         (M Int)
         (N Int)
         (R Int)
         (S Int)
         (T Int)
         (U Int)
         (V Int)
         (W Int)
         (X Int)
         (Y Int)
         (Z Int)
         (A1 Int)
         (B1 Int)
         (C1 Int)
         (D1 Int)
         (E1 Int)
         (F1 Int))
  (let ((a!1 (or (not (and (= Z 1) (= Y A1))) (not (and (= X Y) (= W Z)))))
        (a!2 (or (= D1 0)
                 (not (Proc64 A1 Z E))
                 (not (Proc60 A1 Z E J I H G))
                 (not (= Y G))
                 (not (and (= X Y) (= W Z)))))
        (a!3 (or (not (and (= D1 0) (= Y A1))) (not (and (= X Y) (= W Z)))))
        (a!4 (or (= C1 0)
                 (not (Proc64 A1 Z E))
                 (not (and (Proc63 A1 Z E F D) (= Y A1)))
                 (not (and (= X Y) (= W Z)))))
        (a!5 (or (not (and (= C1 0) (= Y A1))) (not (and (= X Y) (= W Z)))))
        (a!6 (or (not (= Y A1)) (not (and (= X Y) (= W Z)))))
        (a!7 (or (not (Proc29 A1 Z E C))
                 (not (Proc1 A1 Z E B A))
                 (not (= Y A1))
                 (not (and (= X Y) (= W Z))))))
  (let ((a!8 (and a!1
                  (or (= Z 1)
                      (not (Proc51 A1 Z E V))
                      (not (Proc44 A1 Z E U))
                      (not (Proc48 A1 Z E T))
                      (not (Proc55 A1 Z E S))
                      (not (Proc53 A1 Z E R))
                      (not (Proc43 A1 Z E N))
                      (not (Proc49 A1 Z E M))
                      (not (Proc50 A1 Z E L))
                      (not (Proc47 A1 Z E K))
                      (and a!2 a!3 a!4 a!5 a!6 a!7)))))
  (let ((a!9 (not (or (not E)
                      (not (Proc45 F1 E1 E D1))
                      (not (Proc52 F1 E1 E C1))
                      (not (Proc46 F1 E1 E B1 A1 Z))
                      a!8))))
    (=> a!9 (Proc41 F1 E1 E X W)))))))
(assert (forall ((A Int) (B Int) (E Bool)) (=> E (Proc57 B A E))))
(assert (forall ((A Int) (B Int) (C Int) (D Int) (E Bool)) (=> E (Proc58 D C E B A))))
(assert (forall ((A Int) (B Int) (E Bool)) (=> E (Proc64 B A E))))
(assert (forall ((A Int) (B Int) (E Bool)) (=> E (Proc61 B A E))))
(assert (forall ((A Int) (B Int) (E Bool)) (=> E (Proc62 B A E))))
(assert (forall ((A Int)
         (B Int)
         (C Int)
         (D Int)
         (E Bool)
         (F Int)
         (G Int)
         (H Int)
         (I Int)
         (J Int)
         (K Int)
         (L Int)
         (M Int)
         (N Int)
         (R Int)
         (S Int)
         (T Int)
         (U Int)
         (V Int)
         (W Int)
         (X Int)
         (Y Int)
         (Z Int)
         (A1 Int)
         (B1 Int)
         (C1 Int)
         (D1 Int)
         (E1 Int)
         (F1 Int)
         (G1 Int)
         (H1 Int)
         (I1 Int)
         (J1 Int)
         (K1 Int)
         (L1 Int)
         (M1 Int)
         (N1 Int)
         (O1 Int)
         (P1 Int)
         (Q1 Int)
         (R1 Int)
         (S1 Int)
         (T1 Int)
         (U1 Int)
         (V1 Int)
         (W1 Int)
         (X1 Int)
         (Y1 Int)
         (Z1 Int)
         (A2 Int)
         (B2 Int)
         (C2 Int)
         (D2 Int)
         (E2 Int)
         (F2 Int)
         (G2 Int))
  (let ((a!1 (and (= G2 F2) (not (<= E2 (+ 4 G2)))))
        (a!2 (and (not (<= E2 F2))
                  (= D2 E2)
                  (not (<= C2 (+ 332 D2)))
                  (not (<= C2 E2))))
        (a!3 (and (= B2 C2)
                  (not (<= A2 (+ 4 B2)))
                  (not (<= A2 C2))
                  (= Z1 A2)
                  (not (<= Y1 (+ 536 Z1)))
                  (not (<= Y1 A2))
                  (= X1 Y1)
                  (not (<= W1 (+ 240 X1)))))
        (a!4 (and (not (<= W1 Y1))
                  (= V1 W1)
                  (not (<= U1 (+ 240 V1)))
                  (not (<= U1 W1))
                  (= T1 U1)
                  (not (<= S1 (+ 536 T1)))
                  (not (<= S1 U1))
                  (= R1 S1)
                  (not (<= Q1 (+ 240 R1)))
                  (not (<= Q1 S1))
                  (= P1 Q1)
                  (not (<= O1 (+ 4 P1)))
                  (not (<= O1 Q1))
                  (= N1 O1)
                  (not (<= M1 (+ 536 N1)))
                  (not (<= M1 O1))
                  (= L1 M1)
                  (not (<= K1 (+ 332 L1)))
                  (not (<= K1 M1))
                  (= J1 K1)
                  (not (<= I1 (+ 60 J1)))
                  (not (<= I1 K1))
                  (= H1 I1)
                  (not (<= G1 (+ 240 H1)))
                  (not (<= G1 I1))
                  (= F1 G1)
                  (not (<= E1 (+ 240 F1)))
                  (not (<= E1 G1))
                  (= D1 E1)
                  (not (<= C1 (+ 332 D1)))
                  (not (<= C1 E1))
                  (= B1 C1)
                  (not (<= A1 (+ 4 B1)))
                  (not (<= A1 C1))
                  (= Z A1)
                  (not (<= Y (+ 536 Z)))
                  (not (<= Y A1))
                  (= X Y)
                  (not (<= W (+ 240 X)))
                  (not (<= W Y))
                  (= V W)
                  (not (<= U (+ 240 V)))
                  (not (<= U W))
                  (= T U)
                  (not (<= S (+ 240 T)))
                  (not (<= S U))
                  (= R S)
                  (not (<= N (+ 240 R)))
                  (not (<= N S))
                  (= M N)
                  (not (<= L (+ 240 M)))
                  (not (<= L N))
                  (= K L)
                  (not (<= J (+ 40 K)))
                  (not (<= J L))
                  (= I J)
                  (not (<= H (+ 332 I)))
                  (not (<= H J))
                  (= G H)
                  (not (<= F (+ 4 G)))
                  (not (<= F H))
                  (= D F)
                  (not (<= C (+ 40 D)))
                  (not (<= C F)))))
  (let ((a!5 (not (or (not E)
                      (not a!1)
                      (not a!2)
                      (not a!3)
                      (not a!4)
                      (not (= B C))))))
    (=> a!5 (Proc40 F2 A E B))))))
(assert (forall ((A Int)
         (B Int)
         (C Int)
         (D Int)
         (E Bool)
         (F Int)
         (G Int)
         (H Int)
         (I Int)
         (O Bool)
         (P Bool))
  (let ((a!1 (or (not P) (not (and (Proc42 I H true G F O D) (not O))))))
    (=> (not a!1) (Proc65 I H P C E B A)))))
(assert (let ((a!1 (exists ((V0 Int)
                    (V1 Int)
                    (V2 Bool)
                    (V3 Int)
                    (V4 Bool)
                    (V5 Int)
                    (V6 Int))
             (not (=> (and (Proc65 V0 V1 V2 V3 V4 V5 V6) (not false)) false)))))
  (not a!1)))

(check-sat)
